(set-logic LIA)

(declare-const m Int)
(declare-const m! Int)
(declare-const k Int)
(declare-const k! Int)
(declare-const j Int)
(declare-const j! Int)
(declare-const a Int)
(declare-const a! Int)

(declare-const m_31 Int)
(declare-const m_30 Int)
(declare-const m_23 Int)
(declare-const m_0 Int)
(declare-const k_29 Int)
(declare-const k_24 Int)
(declare-const k_22 Int)
(declare-const j_0 Int)
(declare-const a_0 Int)

(define-fun inv-f((a Int)(j Int)(k Int)(m Int)) Bool
